solution status: optimal solution found
objective value:                     126956.855894209
d11(0,0)                                            1 	(obj:0)
d11(1,1)                                            1 	(obj:0)
d11(1,2)                                            1 	(obj:0)
d11(2,4)                                            1 	(obj:0)
d11(2,5)                                            1 	(obj:0)
d11(2,7)                                            1 	(obj:0)
d11(2,8)                                            1 	(obj:0)
d11(2,9)                                            1 	(obj:0)
d11(2,10)                                           1 	(obj:0)
d11(2,11)                                           1 	(obj:0)
d11(3,13)                                           1 	(obj:0)
d11(3,14)                                           1 	(obj:0)
d11(3,15)                                           1 	(obj:0)
d11(3,16)                                           1 	(obj:0)
d11(3,17)                                           1 	(obj:0)
d11(3,18)                                           1 	(obj:0)
d11(3,19)                                           1 	(obj:0)
d11(3,20)                                           1 	(obj:0)
d11(3,21)                                           1 	(obj:0)
d11(3,22)                                           1 	(obj:0)
d11(3,23)                                           1 	(obj:0)
d11(3,24)                                           1 	(obj:0)
d11(3,25)                                           1 	(obj:0)
d11(3,26)                                           1 	(obj:0)
d11(3,28)                                           1 	(obj:0)
d11(3,29)                                           1 	(obj:0)
d11(3,30)                                           1 	(obj:0)
d11(3,31)                                           1 	(obj:0)
d11(3,32)                                           1 	(obj:0)
d11(3,33)                                           1 	(obj:0)
d11(3,34)                                           1 	(obj:0)
d11(3,35)                                           1 	(obj:0)
d11(3,36)                                           1 	(obj:0)
d11(3,37)                                           1 	(obj:0)
d11(3,38)                                           1 	(obj:0)
d11(3,39)                                           1 	(obj:0)
d12(1,3)                                            1 	(obj:0)
d21(2,4)                                            1 	(obj:0)
d21(3,13)                                           1 	(obj:0)
d21(3,14)                                           1 	(obj:0)
d21(3,15)                                           1 	(obj:0)
d21(3,16)                                           1 	(obj:0)
d21(3,17)                                           1 	(obj:0)
d21(3,19)                                           1 	(obj:0)
d21(3,22)                                           1 	(obj:0)
d21(3,23)                                           1 	(obj:0)
d21(3,25)                                           1 	(obj:0)
d21(3,31)                                           1 	(obj:0)
STE(1,1)                             5893.25742818489 	(obj:0)
STE(0,0)                                         7875 	(obj:0)
STE(1,2)                             6890.02343151818 	(obj:0)
STE(1,3)                             7841.67041000005 	(obj:0)
STE(2,4)                             3049.03922151822 	(obj:0)
STE(2,5)                             4045.80522485151 	(obj:0)
STE(2,6)                             5263.25742818489 	(obj:0)
STE(2,7)                             4045.80522485151 	(obj:0)
STE(2,8)                              5042.5712281848 	(obj:0)
STE(2,9)                             6260.02343151818 	(obj:0)
STE(2,10)                            4997.45220333338 	(obj:0)
STE(2,11)                            5994.21820666667 	(obj:0)
STE(2,12)                            7211.67041000005 	(obj:0)
STE(3,13)                            204.821014851554 	(obj:0)
STE(3,14)                            1201.58701818485 	(obj:0)
STE(3,15)                            2419.03922151822 	(obj:0)
STE(3,16)                            1201.58701818485 	(obj:0)
STE(3,17)                            2198.35302151814 	(obj:0)
STE(3,18)                            3415.80522485151 	(obj:0)
STE(3,19)                            2419.03922151822 	(obj:0)
STE(3,20)                            3415.80522485151 	(obj:0)
STE(3,21)                            4633.25742818489 	(obj:0)
STE(3,22)                            1201.58701818485 	(obj:0)
STE(3,23)                            2198.35302151814 	(obj:0)
STE(3,24)                            3415.80522485151 	(obj:0)
STE(3,25)                            2198.35302151814 	(obj:0)
STE(3,26)                            3195.11902485143 	(obj:0)
STE(3,27)                             4412.5712281848 	(obj:0)
STE(3,28)                            3415.80522485151 	(obj:0)
STE(3,29)                             4412.5712281848 	(obj:0)
STE(3,30)                            5630.02343151818 	(obj:0)
STE(3,31)                            2153.23399666671 	(obj:0)
STE(3,32)                                        3150 	(obj:0)
STE(3,33)                            4367.45220333338 	(obj:0)
STE(3,34)                                        3150 	(obj:0)
STE(3,35)                            4146.76600333329 	(obj:0)
STE(3,36)                            5364.21820666667 	(obj:0)
STE(3,37)                            4367.45220333338 	(obj:0)
STE(3,38)                            5364.21820666667 	(obj:0)
STE(3,39)                            6581.67041000005 	(obj:0)
y1(3,23)                             1095.70698300004 	(obj:0)
y1(3,25)                                  1992.796386 	(obj:0)
y1(3,26)                             1095.70698300004 	(obj:0)
y1(3,28)                                  1992.796386 	(obj:0)
y1(3,29)                             1095.70698300004 	(obj:0)
y1(3,31)                                  1992.796386 	(obj:0)
y1(3,32)                             1095.70698300004 	(obj:0)
y1(3,34)                                  1992.796386 	(obj:0)
y1(3,35)                             1095.70698300004 	(obj:0)
y1(3,37)                                  1992.796386 	(obj:0)
y1(3,38)                             1095.70698300004 	(obj:0)
BG(3)                                1204.56299667522 	(obj:10)
AVE(1)                               3199.95851117552 	(obj:0)
WB(2)                                3265.15049132519 	(obj:0)
AVE(2)                               3265.15049132519 	(obj:0)
AVE(3)                               3291.35535332476 	(obj:0)
WG(1)                                3199.95851117552 	(obj:10)
WG(3)                                3291.35535332476 	(obj:10)
BG(1)                                503.890378246503 	(obj:10)
BG(2)                                4495.91834999999 	(obj:10)
y1(1,1)                               1216.5683146336 	(obj:0)
y1(1,2)                              319.478911633636 	(obj:0)
y1(2,4)                                   1992.796386 	(obj:0)
y1(2,5)                              1095.70698300004 	(obj:0)
y1(2,7)                                   1992.796386 	(obj:0)
y1(2,8)                              1095.70698300004 	(obj:0)
y1(2,10)                                  1992.796386 	(obj:0)
y1(2,11)                             1095.70698300004 	(obj:0)
y1(3,13)                                  1992.796386 	(obj:0)
y1(3,14)                             1095.70698300004 	(obj:0)
y1(3,16)                                  1992.796386 	(obj:0)
y1(3,17)                             1095.70698300004 	(obj:0)
y1(3,19)                                  1992.796386 	(obj:0)
y1(3,20)                             1095.70698300004 	(obj:0)
y1(3,22)                                  1992.796386 	(obj:0)
y2(1,3)                              628.074115789523 	(obj:0)
